<instance format="XCSP3" type="CSP">
  <variables>
    <array id="x" note="x[i][j] is the index of the piece at row i and column j" size="[10][7]"> 0..69 </array>
    <array id="t" note="t[i][j] is the value at the top of the piece at row i and column j" size="[11][7]"> 0..11 </array>
    <array id="l" note="l[i][j] is the value at the left of the piece at row i and column j" size="[10][8]"> 0..11 </array>
  </variables>
  <constraints>
    <allDifferent note="all pieces must be placed (only once)"> x[][] </allDifferent>
    <group note="all pieces must be valid (i.e., must correspond to those given initially, possibly after applying some rotation)">
      <extension>
        <list> %... </list>
        <supports> (0,0,0,1,1)(0,0,1,1,0)(0,1,0,0,1)(0,1,1,0,0)(1,0,0,1,3)(1,0,1,3,0)(1,1,3,0,0)(1,3,0,0,1)(2,0,0,2,1)(2,0,2,1,0)(2,1,0,0,2)(2,2,1,0,0)(3,0,0,2,2)(3,0,2,2,0)(3,2,0,0,2)(3,2,2,0,0)(4,0,1,4,1)(4,1,0,1,4)(4,1,4,1,0)(4,4,1,0,1)(5,0,1,4,2)(5,1,4,2,0)(5,2,0,1,4)(5,4,2,0,1)(6,0,1,5,2)(6,1,5,2,0)(6,2,0,1,5)(6,5,2,0,1)(7,0,1,6,3)(7,1,6,3,0)(7,3,0,1,6)(7,6,3,0,1)(8,0,1,7,3)(8,1,7,3,0)(8,3,0,1,7)(8,7,3,0,1)(9,0,1,8,3)(9,1,8,3,0)(9,3,0,1,8)(9,8,3,0,1)(10,0,1,10,1)(10,1,0,1,10)(10,1,10,1,0)(10,10,1,0,1)(11,0,1,11,3)(11,1,11,3,0)(11,3,0,1,11)(11,11,3,0,1)(12,0,2,5,2)(12,2,0,2,5)(12,2,5,2,0)(12,5,2,0,2)(13,0,2,6,2)(13,2,0,2,6)(13,2,6,2,0)(13,6,2,0,2)(14,0,2,6,3)(14,2,6,3,0)(14,3,0,2,6)(14,6,3,0,2)(15,0,2,8,1)(15,1,0,2,8)(15,2,8,1,0)(15,8,1,0,2)(16,0,2,9,2)(16,2,0,2,9)(16,2,9,2,0)(16,9,2,0,2)(17,0,2,10,2)(17,2,0,2,10)(17,2,10,2,0)(17,10,2,0,2)(18,0,2,10,3)(18,2,10,3,0)(18,3,0,2,10)(18,10,3,0,2)(19,0,2,11,3)(19,2,11,3,0)(19,3,0,2,11)(19,11,3,0,2)(20,0,3,5,1)(20,1,0,3,5)(20,3,5,1,0)(20,5,1,0,3)(21,0,3,5,2)(21,2,0,3,5)(21,3,5,2,0)(21,5,2,0,3)(22,0,3,6,1)(22,1,0,3,6)(22,3,6,1,0)(22,6,1,0,3)(23,0,3,6,2)(23,2,0,3,6)(23,3,6,2,0)(23,6,2,0,3)(24,0,3,7,1)(24,1,0,3,7)(24,3,7,1,0)(24,7,1,0,3)(25,0,3,7,3)(25,3,0,3,7)(25,3,7,3,0)(25,7,3,0,3)(26,0,3,8,1)(26,1,0,3,8)(26,3,8,1,0)(26,8,1,0,3)(27,0,3,9,1)(27,1,0,3,9)(27,3,9,1,0)(27,9,1,0,3)(28,0,3,9,2)(28,2,0,3,9)(28,3,9,2,0)(28,9,2,0,3)(29,0,3,9,3)(29,3,0,3,9)(29,3,9,3,0)(29,9,3,0,3)(30,4,4,6,11)(30,4,6,11,4)(30,6,11,4,4)(30,11,4,4,6)(31,4,5,11,6)(31,5,11,6,4)(31,6,4,5,11)(31,11,6,4,5)(32,4,6,5,10)(32,5,10,4,6)(32,6,5,10,4)(32,10,4,6,5)(33,4,6,8,8)(33,6,8,8,4)(33,8,4,6,8)(33,8,8,4,6)(34,4,6,8,11)(34,6,8,11,4)(34,8,11,4,6)(34,11,4,6,8)(35,4,6,9,9)(35,6,9,9,4)(35,9,4,6,9)(35,9,9,4,6)(36,4,7,6,9)(36,6,9,4,7)(36,7,6,9,4)(36,9,4,7,6)(37,4,7,7,8)(37,7,7,8,4)(37,7,8,4,7)(37,8,4,7,7)(38,4,7,8,8)(38,7,8,8,4)(38,8,4,7,8)(38,8,8,4,7)(39,4,7,10,9)(39,7,10,9,4)(39,9,4,7,10)(39,10,9,4,7)(40,4,7,11,7)(40,7,4,7,11)(40,7,11,7,4)(40,11,7,4,7)(41,4,8,4,11)(41,4,11,4,8)(41,8,4,11,4)(41,11,4,8,4)(42,4,8,6,5)(42,5,4,8,6)(42,6,5,4,8)(42,8,6,5,4)(43,4,8,7,11)(43,7,11,4,8)(43,8,7,11,4)(43,11,4,8,7)(44,4,8,10,5)(44,5,4,8,10)(44,8,10,5,4)(44,10,5,4,8)(45,4,9,4,10)(45,4,10,4,9)(45,9,4,10,4)(45,10,4,9,4)(46,4,9,10,7)(46,7,4,9,10)(46,9,10,7,4)(46,10,7,4,9)(47,4,10,5,5)(47,5,4,10,5)(47,5,5,4,10)(47,10,5,5,4)(48,4,10,10,5)(48,5,4,10,10)(48,10,5,4,10)(48,10,10,5,4)(49,5,5,6,8)(49,5,6,8,5)(49,6,8,5,5)(49,8,5,5,6)(50,5,5,11,6)(50,5,11,6,5)(50,6,5,5,11)(50,11,6,5,5)(51,5,6,8,11)(51,6,8,11,5)(51,8,11,5,6)(51,11,5,6,8)(52,5,7,8,10)(52,7,8,10,5)(52,8,10,5,7)(52,10,5,7,8)(53,5,9,6,7)(53,6,7,5,9)(53,7,5,9,6)(53,9,6,7,5)(54,5,9,9,9)(54,9,5,9,9)(54,9,9,5,9)(54,9,9,9,5)(55,5,9,11,7)(55,7,5,9,11)(55,9,11,7,5)(55,11,7,5,9)(56,5,10,8,11)(56,8,11,5,10)(56,10,8,11,5)(56,11,5,10,8)(57,5,11,8,10)(57,8,10,5,11)(57,10,5,11,8)(57,11,8,10,5)(58,5,11,9,8)(58,8,5,11,9)(58,9,8,5,11)(58,11,9,8,5)(59,5,11,11,8)(59,8,5,11,11)(59,11,8,5,11)(59,11,11,8,5)(60,6,6,7,7)(60,6,7,7,6)(60,7,6,6,7)(60,7,7,6,6)(61,6,7,10,7)(61,7,6,7,10)(61,7,10,7,6)(61,10,7,6,7)(62,6,8,6,9)(62,6,9,6,8)(62,8,6,9,6)(62,9,6,8,6)(63,6,8,9,11)(63,8,9,11,6)(63,9,11,6,8)(63,11,6,8,9)(64,6,10,10,11)(64,10,10,11,6)(64,10,11,6,10)(64,11,6,10,10)(65,7,7,7,10)(65,7,7,10,7)(65,7,10,7,7)(65,10,7,7,7)(66,7,8,7,10)(66,7,10,7,8)(66,8,7,10,7)(66,10,7,8,7)(67,8,11,9,11)(67,9,11,8,11)(67,11,8,11,9)(67,11,9,11,8)(68,9,9,11,11)(68,9,11,11,9)(68,11,9,9,11)(68,11,11,9,9)(69,9,10,10,10)(69,10,9,10,10)(69,10,10,9,10)(69,10,10,10,9) </supports>
      </extension>
      <args> x[0][0] t[0][0] l[0][1] t[1][0] l[0][0] </args>
      <args> x[0][1] t[0][1] l[0][2] t[1][1] l[0][1] </args>
      <args> x[0][2] t[0][2] l[0][3] t[1][2] l[0][2] </args>
      <args> x[0][3] t[0][3] l[0][4] t[1][3] l[0][3] </args>
      <args> x[0][4] t[0][4] l[0][5] t[1][4] l[0][4] </args>
      <args> x[0][5] t[0][5] l[0][6] t[1][5] l[0][5] </args>
      <args> x[0][6] t[0][6] l[0][7] t[1][6] l[0][6] </args>
      <args> x[1][0] t[1][0] l[1][1] t[2][0] l[1][0] </args>
      <args> x[1][1] t[1][1] l[1][2] t[2][1] l[1][1] </args>
      <args> x[1][2] t[1][2] l[1][3] t[2][2] l[1][2] </args>
      <args> x[1][3] t[1][3] l[1][4] t[2][3] l[1][3] </args>
      <args> x[1][4] t[1][4] l[1][5] t[2][4] l[1][4] </args>
      <args> x[1][5] t[1][5] l[1][6] t[2][5] l[1][5] </args>
      <args> x[1][6] t[1][6] l[1][7] t[2][6] l[1][6] </args>
      <args> x[2][0] t[2][0] l[2][1] t[3][0] l[2][0] </args>
      <args> x[2][1] t[2][1] l[2][2] t[3][1] l[2][1] </args>
      <args> x[2][2] t[2][2] l[2][3] t[3][2] l[2][2] </args>
      <args> x[2][3] t[2][3] l[2][4] t[3][3] l[2][3] </args>
      <args> x[2][4] t[2][4] l[2][5] t[3][4] l[2][4] </args>
      <args> x[2][5] t[2][5] l[2][6] t[3][5] l[2][5] </args>
      <args> x[2][6] t[2][6] l[2][7] t[3][6] l[2][6] </args>
      <args> x[3][0] t[3][0] l[3][1] t[4][0] l[3][0] </args>
      <args> x[3][1] t[3][1] l[3][2] t[4][1] l[3][1] </args>
      <args> x[3][2] t[3][2] l[3][3] t[4][2] l[3][2] </args>
      <args> x[3][3] t[3][3] l[3][4] t[4][3] l[3][3] </args>
      <args> x[3][4] t[3][4] l[3][5] t[4][4] l[3][4] </args>
      <args> x[3][5] t[3][5] l[3][6] t[4][5] l[3][5] </args>
      <args> x[3][6] t[3][6] l[3][7] t[4][6] l[3][6] </args>
      <args> x[4][0] t[4][0] l[4][1] t[5][0] l[4][0] </args>
      <args> x[4][1] t[4][1] l[4][2] t[5][1] l[4][1] </args>
      <args> x[4][2] t[4][2] l[4][3] t[5][2] l[4][2] </args>
      <args> x[4][3] t[4][3] l[4][4] t[5][3] l[4][3] </args>
      <args> x[4][4] t[4][4] l[4][5] t[5][4] l[4][4] </args>
      <args> x[4][5] t[4][5] l[4][6] t[5][5] l[4][5] </args>
      <args> x[4][6] t[4][6] l[4][7] t[5][6] l[4][6] </args>
      <args> x[5][0] t[5][0] l[5][1] t[6][0] l[5][0] </args>
      <args> x[5][1] t[5][1] l[5][2] t[6][1] l[5][1] </args>
      <args> x[5][2] t[5][2] l[5][3] t[6][2] l[5][2] </args>
      <args> x[5][3] t[5][3] l[5][4] t[6][3] l[5][3] </args>
      <args> x[5][4] t[5][4] l[5][5] t[6][4] l[5][4] </args>
      <args> x[5][5] t[5][5] l[5][6] t[6][5] l[5][5] </args>
      <args> x[5][6] t[5][6] l[5][7] t[6][6] l[5][6] </args>
      <args> x[6][0] t[6][0] l[6][1] t[7][0] l[6][0] </args>
      <args> x[6][1] t[6][1] l[6][2] t[7][1] l[6][1] </args>
      <args> x[6][2] t[6][2] l[6][3] t[7][2] l[6][2] </args>
      <args> x[6][3] t[6][3] l[6][4] t[7][3] l[6][3] </args>
      <args> x[6][4] t[6][4] l[6][5] t[7][4] l[6][4] </args>
      <args> x[6][5] t[6][5] l[6][6] t[7][5] l[6][5] </args>
      <args> x[6][6] t[6][6] l[6][7] t[7][6] l[6][6] </args>
      <args> x[7][0] t[7][0] l[7][1] t[8][0] l[7][0] </args>
      <args> x[7][1] t[7][1] l[7][2] t[8][1] l[7][1] </args>
      <args> x[7][2] t[7][2] l[7][3] t[8][2] l[7][2] </args>
      <args> x[7][3] t[7][3] l[7][4] t[8][3] l[7][3] </args>
      <args> x[7][4] t[7][4] l[7][5] t[8][4] l[7][4] </args>
      <args> x[7][5] t[7][5] l[7][6] t[8][5] l[7][5] </args>
      <args> x[7][6] t[7][6] l[7][7] t[8][6] l[7][6] </args>
      <args> x[8][0] t[8][0] l[8][1] t[9][0] l[8][0] </args>
      <args> x[8][1] t[8][1] l[8][2] t[9][1] l[8][1] </args>
      <args> x[8][2] t[8][2] l[8][3] t[9][2] l[8][2] </args>
      <args> x[8][3] t[8][3] l[8][4] t[9][3] l[8][3] </args>
      <args> x[8][4] t[8][4] l[8][5] t[9][4] l[8][4] </args>
      <args> x[8][5] t[8][5] l[8][6] t[9][5] l[8][5] </args>
      <args> x[8][6] t[8][6] l[8][7] t[9][6] l[8][6] </args>
      <args> x[9][0] t[9][0] l[9][1] t[10][0] l[9][0] </args>
      <args> x[9][1] t[9][1] l[9][2] t[10][1] l[9][1] </args>
      <args> x[9][2] t[9][2] l[9][3] t[10][2] l[9][2] </args>
      <args> x[9][3] t[9][3] l[9][4] t[10][3] l[9][3] </args>
      <args> x[9][4] t[9][4] l[9][5] t[10][4] l[9][4] </args>
      <args> x[9][5] t[9][5] l[9][6] t[10][5] l[9][5] </args>
      <args> x[9][6] t[9][6] l[9][7] t[10][6] l[9][6] </args>
    </group>
    <group note="putting special value 0 on borders">
      <intension> eq(%0,0) </intension>
      <args> t[0][0] </args>
      <args> t[0][1] </args>
      <args> t[0][2] </args>
      <args> t[0][3] </args>
      <args> t[0][4] </args>
      <args> t[0][5] </args>
      <args> t[0][6] </args>
      <args> l[0][7] </args>
      <args> l[1][7] </args>
      <args> l[2][7] </args>
      <args> l[3][7] </args>
      <args> l[4][7] </args>
      <args> l[5][7] </args>
      <args> l[6][7] </args>
      <args> l[7][7] </args>
      <args> l[8][7] </args>
      <args> l[9][7] </args>
      <args> t[10][0] </args>
      <args> t[10][1] </args>
      <args> t[10][2] </args>
      <args> t[10][3] </args>
      <args> t[10][4] </args>
      <args> t[10][5] </args>
      <args> t[10][6] </args>
      <args> l[0][0] </args>
      <args> l[1][0] </args>
      <args> l[2][0] </args>
      <args> l[3][0] </args>
      <args> l[4][0] </args>
      <args> l[5][0] </args>
      <args> l[6][0] </args>
      <args> l[7][0] </args>
      <args> l[8][0] </args>
      <args> l[9][0] </args>
    </group>
  </constraints>
</instance>
